benchmarks_vrp/CMT12/tsp_classic/CMT12_0.vrp
NAME: CMT12_0
TYPE: CVRP
COMMENT: 819.56 - Cluster Nr.0
DIMENSION: 9
CAPACITY: 200
EDGE_WEIGHT_TYPE: EUC_2D
NODE_COORD_TYPE: TWOD_COORDS
NODE_COORD_SECTION: 
2 38 5
3 42 10
4 42 15
5 40 50
7 38 15
9 44 5
1 35 5
6 40 5
8 40 15
DEPOT_SECTION: 
5
-1
DEMAND_SECTION: 
7 10
1 20
8 40
6 30
4 10
2 30
5 0
9 20
3 40
EOF
