benchmarks_vrp/CMT12/tsp_classic/CMT12_0.tour
NAME: CMT12_0 solution
TYPE: TOUR
TOUR_SECTION:
5 7 1 2 6 9 3 4 8 -1
-1
EOF